letting n =  10
letting blocks =  [[1, 1], [1, 2], [1, 3], [1, 5], [1, 8], [1, 10], [2, 5], [2, 6], [2, 7], [2, 9], [2, 10], [3, 2], [3, 4], [3, 7], [3, 10], [4, 2], [4, 3], [4, 4], [4, 5], [4, 7], [4, 8], [5, 3], [5, 4], [5, 5], [5, 6], [5, 8], [5, 9], [6, 1], [6, 2], [6, 3], [6, 5], [6, 8], [6, 9], [7, 3], [7, 6], [7, 8], [7, 9], [7, 10], [8, 2], [8, 4], [8, 6], [8, 10], [9, 1], [9, 2], [9, 3], [9, 5], [9, 6], [9, 9], [10, 1], [10, 6], [10, 7], [10, 8], [10, 9], [10, 10]]
